c Reduced graph for GEOM40_1 generated by Cyril Grelier
p edge 23 43
e 1 12
e 1 13
e 1 15
e 1 16
e 1 18
e 2 11
e 2 14
e 2 17
e 2 19
e 3 8
e 3 9
e 5 20
e 6 7
e 6 10
e 6 21
e 6 22
e 6 23
e 7 10
e 7 21
e 7 22
e 7 23
e 8 9
e 10 21
e 10 22
e 10 23
e 11 12
e 11 14
e 11 17
e 11 19
e 12 14
e 12 18
e 13 15
e 13 16
e 13 18
e 14 19
e 15 16
e 15 18
e 15 19
e 16 18
e 18 19
e 21 22
e 21 23
e 22 23
